(declare-fun c_ack!1163 () (_ BitVec 64))
(declare-fun b_ack!1162 () (_ BitVec 32))
(declare-fun a_ack!1164 () (_ BitVec 32))
(assert (not (fp.eq ((_ to_fp 11 53) c_ack!1163) ((_ to_fp 11 53) #x0000000000000000))))
(assert (not (= a_ack!1164 b_ack!1162)))
(assert (not (= #x00000000 b_ack!1162)))
(assert (not (= #x00000000 a_ack!1164)))
(assert (not (bvslt b_ack!1162 #x00000000)))
(assert (not (fp.gt ((_ to_fp 11 53) c_ack!1163) ((_ to_fp 11 53) #x4059000000000000))))
(assert (not (fp.lt ((_ to_fp 11 53) c_ack!1163) ((_ to_fp 11 53) #xc059000000000000))))
(assert (not (bvslt a_ack!1164 #x00000000)))
(assert (not (bvslt a_ack!1164 #x00000000)))
(assert (not (= a_ack!1164 b_ack!1162)))
(assert (not (= #x00000001 a_ack!1164)))
(assert (not (= b_ack!1162 (bvadd #x00000001 a_ack!1164))))
(assert (not (= a_ack!1164 (bvadd #x00000001 b_ack!1162))))
(assert (not (= a_ack!1164 (bvadd #x00000002 b_ack!1162))))
(assert (not (= b_ack!1162 (bvmul #x00000002 a_ack!1164))))
(assert (bvslt b_ack!1162 #x0000000a))
(assert (bvslt a_ack!1164 #x0000000a))
(assert (not (fp.lt (fp.abs ((_ to_fp 11 53) c_ack!1163))
            ((_ to_fp 11 53) #x4014000000000000))))
(assert (let ((a!1 (fp.gt ((_ to_fp 11 53) roundNearestTiesToEven b_ack!1162)
                  (fp.mul roundNearestTiesToEven
                          ((_ to_fp 11 53) roundNearestTiesToEven a_ack!1164)
                          (fp.abs ((_ to_fp 11 53) c_ack!1163))))))
  (not a!1)))
(assert (not (bvslt a_ack!1164 b_ack!1162)))
(assert (not (bvslt a_ack!1164 b_ack!1162)))
(assert (not (bvslt a_ack!1164 b_ack!1162)))
(assert (not (fp.geq ((_ to_fp 11 53) c_ack!1163) ((_ to_fp 11 53) #x0000000000000000))))
(assert (fp.leq ((_ to_fp 11 53) roundNearestTiesToEven a_ack!1164)
        (fp.mul roundNearestTiesToEven
                ((_ to_fp 11 53) #x3fe0000000000000)
                (fp.sub roundNearestTiesToEven
                        ((_ to_fp 11 53) roundNearestTiesToEven b_ack!1162)
                        ((_ to_fp 11 53) c_ack!1163)))))

(check-sat)
(exit)
